StringID     Type         x            y            demand       ReadyTime    DueDate      ServiceTime  PartnerID
D0           d            0.0          1.0          0.0          0.0          850.0        4.0          0
C1           cp           55.0         -63.0        25.0         35.0         322.0        15.0         C8
C2           cp           98.0         21.0         30.0         32.0         333.0        15.0         C9
C3           cp           66.0         -19.0        35.0         37.0         325.0        15.0         C10
C4           cp           53.0         25.0         40.0         33.0         342.0        15.0         C11
C5           cp           41.0         -33.0        45.0         35.0         339.0        15.0         C12
C6           cp           97.0         27.0         50.0         34.0         355.0        15.0         C13
C7           cp           52.0         30.0         30.0         36.0         352.0        15.0         C14
C8           cd           74.0         77.0         -25.0        52.0         560.0        15.0         C1
C9           cd           11.0         -13.0        -30.0        55.0         565.0        16.0         C2
C10          cd           30.0         67.0         -35.0        53.0         563.0        15.0         C3
C11          cd           12.0         77.0         -40.0        58.0         561.0        17.0         C4
C12          cd           65.0         -37.0        -45.0        54.0         563.0        15.0         C5
C13          cd           14.0         11.0         -50.0        55.0         562.0        14.0         C6
C14          cd           27.0         99.0         -30.0        56.0         561.0        16.0         C7

VehicleCount : 1
VehiclePerCapacity:   60
VehicleMaxTrolleyCount : 1
TrolleyImpactRate : 1.2
EarlinessPenalty : 25
TardinessPenalty : 25
